
===== New CPLEX run =====
Instance: /home/yorig/tuner/mpils-tests/instances/miplib/medium-1/mushroom-best.mps
Config: /scratch/yorig/mpils-results-grid-ticks-10000-2proc-no-mip-start/medium-1/2proc/seed-3/7_mushroom-best_seed-3_20260501_224031/iterated_local_search/run_6_worker_1/ils_config_11171447243613093438.prm
========================

Selected objective sense:  MINIMIZE
Selected objective  name:  obj
Selected RHS        name:  rhs
Selected bound      name:  bnd
Version identifier: 22.1.2.0 | 2024-11-26 | 0edbb82fd
CPXPARAM_Simplex_DGradient                       3
CPXPARAM_Threads                                 8
CPXPARAM_Parallel                                1
CPXPARAM_MIP_Cuts_Cliques                        3
CPXPARAM_MIP_Cuts_Covers                         2
CPXPARAM_MIP_Strategy_StartAlgorithm             2
CPXPARAM_MIP_Strategy_SubAlgorithm               5
CPXPARAM_Preprocessing_BoundStrength             0
CPXPARAM_MIP_Strategy_PresolveNode               3
CPXPARAM_MIP_Cuts_Implied                        2
CPXPARAM_MIP_Cuts_GUBCovers                      -1
CPXPARAM_MIP_Limits_GomoryCand                   25
CPXPARAM_MIP_Cuts_Gomory                         2
CPXPARAM_MIP_Cuts_MIRCut                         -1
CPXPARAM_MIP_Cuts_Disjunctive                    3
CPXPARAM_MIP_Limits_AggForCut                    5
CPXPARAM_Emphasis_MIP                            2
CPXPARAM_Preprocessing_Symmetry                  5
CPXPARAM_MIP_Strategy_HeuristicFreq              20
CPXPARAM_MIP_Strategy_BBInterval                 5
CPXPARAM_MIP_Strategy_RINSHeur                   1000
CPXPARAM_DetTimeLimit                            10000
CPXPARAM_MIP_Limits_CutsFactor                   16
Found incumbent of value 8124.895732 after 0.00 sec. (1.54 ticks)
Tried aggregator 2 times.
MIP Presolve modified 8124 coefficients.
Aggregator did 4 substitutions.
Reduced MIP has 8576 rows, 8464 columns, and 180492 nonzeros.
Reduced MIP has 8237 binaries, 114 generals, 0 SOSs, and 0 indicators.
Presolve time = 0.04 sec. (61.25 ticks)
Probing time = 0.04 sec. (2.61 ticks)
Tried aggregator 1 time.
Detecting symmetries...
Reduced MIP has 8576 rows, 8464 columns, and 180492 nonzeros.
Reduced MIP has 8237 binaries, 227 generals, 0 SOSs, and 0 indicators.
Presolve time = 0.04 sec. (57.67 ticks)
Probing time = 0.01 sec. (3.45 ticks)
MIP emphasis: optimality.
MIP search method: dynamic search.
Parallel mode: deterministic, using up to 8 threads.
Root relaxation solution time = 0.08 sec. (176.13 ticks)

        Nodes                                         Cuts/
   Node  Left     Objective  IInf  Best Integer    Best Bound    ItCnt     Gap

*     0+    0                         8124.8957        0.0000           100.00%
*     0+    0                         3916.8946        0.0000           100.00%
*     0+    0                         3916.8936        0.0000           100.00%
*     0+    0                         3916.8925        0.0000           100.00%
*     0+    0                         3916.0000        0.0000           100.00%
      0     0        0.0000    31     3916.0000        0.0000      471  100.00%
*     0+    0                           63.1343        0.0000           100.00%

Clique cuts applied:  0
Cover cuts applied:  0
Implied bound cuts applied:  0
Gomory fractional cuts applied:  0
Disjunctive cuts applied:  0
Cone linearizations applied:  0

Root node processing (before b&c):
  Real time             =    5.87 sec. (10014.86 ticks)
Parallel b&c, 8 threads:
  Real time             =    0.00 sec. (0.00 ticks)
  Sync time (average)   =    0.00 sec.
  Wait time (average)   =    0.00 sec.
                          ------------
Total (root+branch&cut) =    5.87 sec. (10014.86 ticks)
Gap: 100%
Upper bound: 63.1343
Lower bound: 1.26829e-05
End of CPLEX run. Time: 5.868 seconds

===== New CPLEX run =====
Instance: /home/yorig/tuner/mpils-tests/instances/miplib/medium-1/mushroom-best.mps
Config: /scratch/yorig/mpils-results-grid-ticks-10000-2proc-no-mip-start/medium-1/2proc/seed-3/7_mushroom-best_seed-3_20260501_224031/iterated_local_search/run_6_worker_1/ils_config_11409548754952168242.prm
========================

Selected objective sense:  MINIMIZE
Selected objective  name:  obj
Selected RHS        name:  rhs
Selected bound      name:  bnd
Version identifier: 22.1.2.0 | 2024-11-26 | 0edbb82fd
CPXPARAM_Simplex_DGradient                       3
CPXPARAM_Threads                                 8
CPXPARAM_Parallel                                1
CPXPARAM_MIP_Cuts_Cliques                        3
CPXPARAM_MIP_Cuts_Covers                         2
CPXPARAM_MIP_Strategy_StartAlgorithm             2
CPXPARAM_MIP_Strategy_SubAlgorithm               5
CPXPARAM_MIP_Strategy_PresolveNode               3
CPXPARAM_MIP_Cuts_Implied                        2
CPXPARAM_MIP_Cuts_GUBCovers                      -1
CPXPARAM_MIP_Limits_GomoryCand                   25
CPXPARAM_MIP_Cuts_Gomory                         2
CPXPARAM_MIP_Cuts_MIRCut                         -1
CPXPARAM_MIP_Cuts_Disjunctive                    3
CPXPARAM_MIP_Limits_AggForCut                    5
CPXPARAM_Emphasis_MIP                            2
CPXPARAM_Preprocessing_Symmetry                  5
CPXPARAM_MIP_Strategy_HeuristicFreq              20
CPXPARAM_MIP_Strategy_BBInterval                 5
CPXPARAM_MIP_Strategy_RINSHeur                   1000
CPXPARAM_DetTimeLimit                            10000
CPXPARAM_MIP_Limits_CutsFactor                   16
Found incumbent of value 8124.895732 after 0.00 sec. (1.54 ticks)
Tried aggregator 2 times.
MIP Presolve eliminated 88 rows and 0 columns.
MIP Presolve modified 8124 coefficients.
Aggregator did 4 substitutions.
Reduced MIP has 8488 rows, 8464 columns, and 180316 nonzeros.
Reduced MIP has 8237 binaries, 114 generals, 0 SOSs, and 0 indicators.
Presolve time = 0.05 sec. (69.18 ticks)
Probing time = 0.24 sec. (2.69 ticks)
Tried aggregator 2 times.
Detecting symmetries...
MIP Presolve modified 6649 coefficients.
Aggregator did 44 substitutions.
Reduced MIP has 8444 rows, 8420 columns, and 180228 nonzeros.
Reduced MIP has 8237 binaries, 183 generals, 0 SOSs, and 0 indicators.
Presolve time = 0.08 sec. (102.88 ticks)
Probing time = 0.14 sec. (3.09 ticks)
MIP emphasis: optimality.
MIP search method: dynamic search.
Parallel mode: deterministic, using up to 8 threads.
Root relaxation solution time = 0.15 sec. (231.41 ticks)

        Nodes                                         Cuts/
   Node  Left     Objective  IInf  Best Integer    Best Bound    ItCnt     Gap

*     0+    0                         8124.8957        0.0000           100.00%
*     0+    0                         3916.5463        0.0000           100.00%
*     0+    0                         3916.5456        0.0000           100.00%
*     0+    0                         3916.5450        0.0000           100.00%
*     0+    0                         3916.0000        0.0000           100.00%
      0     0        0.0000    27     3916.0000        0.0000      378  100.00%
*     0+    0                           22.1027        0.0000           100.00%

Clique cuts applied:  0
Cover cuts applied:  0
Implied bound cuts applied:  0
Gomory fractional cuts applied:  0
Disjunctive cuts applied:  0
Cone linearizations applied:  0

Root node processing (before b&c):
  Real time             =    9.99 sec. (19277.54 ticks)
Parallel b&c, 8 threads:
  Real time             =    0.00 sec. (0.00 ticks)
  Sync time (average)   =    0.00 sec.
  Wait time (average)   =    0.00 sec.
                          ------------
Total (root+branch&cut) =    9.99 sec. (19277.54 ticks)
Gap: 100%
Upper bound: 22.1027
Lower bound: 1.26829e-05
End of CPLEX run. Time: 9.99796 seconds

===== New CPLEX run =====
Instance: /home/yorig/tuner/mpils-tests/instances/miplib/medium-1/mushroom-best.mps
Config: /scratch/yorig/mpils-results-grid-ticks-10000-2proc-no-mip-start/medium-1/2proc/seed-3/7_mushroom-best_seed-3_20260501_224031/iterated_local_search/run_6_worker_1/ils_config_9819452635064475162.prm
========================

Selected objective sense:  MINIMIZE
Selected objective  name:  obj
Selected RHS        name:  rhs
Selected bound      name:  bnd
Version identifier: 22.1.2.0 | 2024-11-26 | 0edbb82fd
CPXPARAM_Simplex_DGradient                       3
CPXPARAM_Threads                                 8
CPXPARAM_Parallel                                1
CPXPARAM_MIP_Cuts_Cliques                        3
CPXPARAM_MIP_Cuts_Covers                         2
CPXPARAM_MIP_Strategy_StartAlgorithm             2
CPXPARAM_MIP_Strategy_SubAlgorithm               5
CPXPARAM_Preprocessing_BoundStrength             0
CPXPARAM_MIP_Strategy_PresolveNode               3
CPXPARAM_MIP_Cuts_Implied                        2
CPXPARAM_MIP_Cuts_GUBCovers                      -1
CPXPARAM_MIP_Limits_GomoryCand                   150
CPXPARAM_MIP_Cuts_Gomory                         2
CPXPARAM_MIP_Cuts_MIRCut                         -1
CPXPARAM_MIP_Cuts_Disjunctive                    3
CPXPARAM_MIP_Limits_AggForCut                    5
CPXPARAM_Emphasis_MIP                            2
CPXPARAM_Preprocessing_Symmetry                  5
CPXPARAM_MIP_Strategy_HeuristicFreq              20
CPXPARAM_MIP_Strategy_BBInterval                 5
CPXPARAM_MIP_Strategy_RINSHeur                   1000
CPXPARAM_DetTimeLimit                            10000
CPXPARAM_MIP_Limits_CutsFactor                   16
Found incumbent of value 8124.895732 after 0.00 sec. (1.54 ticks)
Tried aggregator 2 times.
MIP Presolve modified 8124 coefficients.
Aggregator did 4 substitutions.
Reduced MIP has 8576 rows, 8464 columns, and 180492 nonzeros.
Reduced MIP has 8237 binaries, 114 generals, 0 SOSs, and 0 indicators.
Presolve time = 0.04 sec. (61.25 ticks)
Probing time = 0.19 sec. (2.61 ticks)
Tried aggregator 1 time.
Detecting symmetries...
Reduced MIP has 8576 rows, 8464 columns, and 180492 nonzeros.
Reduced MIP has 8237 binaries, 227 generals, 0 SOSs, and 0 indicators.
Presolve time = 0.04 sec. (57.67 ticks)
Probing time = 0.01 sec. (3.45 ticks)
MIP emphasis: optimality.
MIP search method: dynamic search.
Parallel mode: deterministic, using up to 8 threads.
Root relaxation solution time = 0.08 sec. (176.13 ticks)

        Nodes                                         Cuts/
   Node  Left     Objective  IInf  Best Integer    Best Bound    ItCnt     Gap

*     0+    0                         8124.8957        0.0000           100.00%
*     0+    0                         3916.8946        0.0000           100.00%
*     0+    0                         3916.8936        0.0000           100.00%
*     0+    0                         3916.8925        0.0000           100.00%
*     0+    0                         3916.0000        0.0000           100.00%
      0     0        0.0000    31     3916.0000        0.0000      471  100.00%
*     0+    0                           63.1343        0.0000           100.00%

Clique cuts applied:  0
Cover cuts applied:  0
Implied bound cuts applied:  0
Gomory fractional cuts applied:  0
Disjunctive cuts applied:  0
Cone linearizations applied:  0

Root node processing (before b&c):
  Real time             =    5.80 sec. (10014.86 ticks)
Parallel b&c, 8 threads:
  Real time             =    0.00 sec. (0.00 ticks)
  Sync time (average)   =    0.00 sec.
  Wait time (average)   =    0.00 sec.
                          ------------
Total (root+branch&cut) =    5.80 sec. (10014.86 ticks)
Gap: 100%
Upper bound: 63.1343
Lower bound: 1.26829e-05
End of CPLEX run. Time: 5.80523 seconds

===== New CPLEX run =====
Instance: /home/yorig/tuner/mpils-tests/instances/miplib/medium-1/mushroom-best.mps
Config: /scratch/yorig/mpils-results-grid-ticks-10000-2proc-no-mip-start/medium-1/2proc/seed-3/7_mushroom-best_seed-3_20260501_224031/iterated_local_search/run_6_worker_1/ils_config_11906011981646074897.prm
========================

Selected objective sense:  MINIMIZE
Selected objective  name:  obj
Selected RHS        name:  rhs
Selected bound      name:  bnd
Version identifier: 22.1.2.0 | 2024-11-26 | 0edbb82fd
CPXPARAM_Simplex_DGradient                       3
CPXPARAM_Threads                                 8
CPXPARAM_Parallel                                1
CPXPARAM_MIP_Cuts_Cliques                        3
CPXPARAM_MIP_Cuts_Covers                         2
CPXPARAM_MIP_Strategy_StartAlgorithm             2
CPXPARAM_MIP_Strategy_SubAlgorithm               5
CPXPARAM_Preprocessing_BoundStrength             0
CPXPARAM_MIP_Strategy_PresolveNode               3
CPXPARAM_MIP_Cuts_Implied                        2
CPXPARAM_MIP_Cuts_GUBCovers                      -1
CPXPARAM_MIP_Limits_GomoryCand                   25
CPXPARAM_MIP_Cuts_Gomory                         2
CPXPARAM_MIP_Cuts_MIRCut                         -1
CPXPARAM_MIP_Cuts_Disjunctive                    3
CPXPARAM_MIP_Limits_AggForCut                    1
CPXPARAM_Emphasis_MIP                            2
CPXPARAM_Preprocessing_Symmetry                  5
CPXPARAM_MIP_Strategy_HeuristicFreq              20
CPXPARAM_MIP_Strategy_BBInterval                 5
CPXPARAM_MIP_Strategy_RINSHeur                   1000
CPXPARAM_DetTimeLimit                            10000
CPXPARAM_MIP_Limits_CutsFactor                   16
Found incumbent of value 8124.895732 after 0.00 sec. (1.54 ticks)
Tried aggregator 2 times.
MIP Presolve modified 8124 coefficients.
Aggregator did 4 substitutions.
Reduced MIP has 8576 rows, 8464 columns, and 180492 nonzeros.
Reduced MIP has 8237 binaries, 114 generals, 0 SOSs, and 0 indicators.
Presolve time = 0.04 sec. (61.25 ticks)
Probing time = 0.36 sec. (2.61 ticks)
Tried aggregator 1 time.
Detecting symmetries...
Reduced MIP has 8576 rows, 8464 columns, and 180492 nonzeros.
Reduced MIP has 8237 binaries, 227 generals, 0 SOSs, and 0 indicators.
Presolve time = 0.04 sec. (57.67 ticks)
Probing time = 0.09 sec. (3.45 ticks)
MIP emphasis: optimality.
MIP search method: dynamic search.
Parallel mode: deterministic, using up to 8 threads.
Root relaxation solution time = 0.09 sec. (176.13 ticks)

        Nodes                                         Cuts/
   Node  Left     Objective  IInf  Best Integer    Best Bound    ItCnt     Gap

*     0+    0                         8124.8957        0.0000           100.00%
*     0+    0                         3916.8946        0.0000           100.00%
*     0+    0                         3916.8936        0.0000           100.00%
*     0+    0                         3916.8925        0.0000           100.00%
*     0+    0                         3916.0000        0.0000           100.00%
      0     0        0.0000    31     3916.0000        0.0000      471  100.00%
*     0+    0                           63.1343        0.0000           100.00%

Clique cuts applied:  0
Cover cuts applied:  0
Implied bound cuts applied:  0
Gomory fractional cuts applied:  0
Disjunctive cuts applied:  0
Cone linearizations applied:  0

Root node processing (before b&c):
  Real time             =    5.79 sec. (10014.70 ticks)
Parallel b&c, 8 threads:
  Real time             =    0.00 sec. (0.00 ticks)
  Sync time (average)   =    0.00 sec.
  Wait time (average)   =    0.00 sec.
                          ------------
Total (root+branch&cut) =    5.79 sec. (10014.70 ticks)
Gap: 100%
Upper bound: 63.1343
Lower bound: 1.26829e-05
End of CPLEX run. Time: 5.80092 seconds

===== New CPLEX run =====
Instance: /home/yorig/tuner/mpils-tests/instances/miplib/medium-1/mushroom-best.mps
Config: /scratch/yorig/mpils-results-grid-ticks-10000-2proc-no-mip-start/medium-1/2proc/seed-3/7_mushroom-best_seed-3_20260501_224031/iterated_local_search/run_6_worker_1/ils_config_11634238492217563873.prm
========================

Selected objective sense:  MINIMIZE
Selected objective  name:  obj
Selected RHS        name:  rhs
Selected bound      name:  bnd
Version identifier: 22.1.2.0 | 2024-11-26 | 0edbb82fd
CPXPARAM_Simplex_DGradient                       3
CPXPARAM_Threads                                 8
CPXPARAM_Parallel                                1
CPXPARAM_MIP_Cuts_Cliques                        3
CPXPARAM_MIP_Cuts_Covers                         2
CPXPARAM_MIP_Strategy_StartAlgorithm             2
CPXPARAM_MIP_Strategy_SubAlgorithm               5
CPXPARAM_MIP_Strategy_VariableSelect             -1
CPXPARAM_Preprocessing_BoundStrength             0
CPXPARAM_MIP_Strategy_PresolveNode               3
CPXPARAM_MIP_Cuts_Implied                        2
CPXPARAM_MIP_Cuts_GUBCovers                      -1
CPXPARAM_MIP_Limits_GomoryCand                   25
CPXPARAM_MIP_Cuts_Gomory                         2
CPXPARAM_MIP_Cuts_MIRCut                         -1
CPXPARAM_MIP_Cuts_Disjunctive                    3
CPXPARAM_MIP_Limits_AggForCut                    5
CPXPARAM_Emphasis_MIP                            2
CPXPARAM_Preprocessing_Symmetry                  5
CPXPARAM_MIP_Strategy_HeuristicFreq              20
CPXPARAM_MIP_Strategy_BBInterval                 5
CPXPARAM_MIP_Strategy_RINSHeur                   1000
CPXPARAM_DetTimeLimit                            10000
CPXPARAM_MIP_Limits_CutsFactor                   16
Found incumbent of value 8124.895732 after 0.00 sec. (1.54 ticks)
Tried aggregator 2 times.
MIP Presolve modified 8124 coefficients.
Aggregator did 4 substitutions.
Reduced MIP has 8576 rows, 8464 columns, and 180492 nonzeros.
Reduced MIP has 8237 binaries, 114 generals, 0 SOSs, and 0 indicators.
Presolve time = 0.04 sec. (61.25 ticks)
Probing time = 0.26 sec. (2.61 ticks)
Tried aggregator 1 time.
Detecting symmetries...
Reduced MIP has 8576 rows, 8464 columns, and 180492 nonzeros.
Reduced MIP has 8237 binaries, 227 generals, 0 SOSs, and 0 indicators.
Presolve time = 0.05 sec. (57.67 ticks)
Probing time = 0.05 sec. (3.45 ticks)
MIP emphasis: optimality.
MIP search method: dynamic search.
Parallel mode: deterministic, using up to 8 threads.
Root relaxation solution time = 0.11 sec. (176.13 ticks)

        Nodes                                         Cuts/
   Node  Left     Objective  IInf  Best Integer    Best Bound    ItCnt     Gap

*     0+    0                         8124.8957        0.0000           100.00%
*     0+    0                         3916.8946        0.0000           100.00%
*     0+    0                         3916.8936        0.0000           100.00%
*     0+    0                         3916.8925        0.0000           100.00%
*     0+    0                         3916.0000        0.0000           100.00%
      0     0        0.0000    31     3916.0000        0.0000      471  100.00%
*     0+    0                           63.1343        0.0000           100.00%

Clique cuts applied:  0
Cover cuts applied:  0
Implied bound cuts applied:  0
Gomory fractional cuts applied:  0
Disjunctive cuts applied:  0
Cone linearizations applied:  0

Root node processing (before b&c):
  Real time             =    5.96 sec. (10014.86 ticks)
Parallel b&c, 8 threads:
  Real time             =    0.00 sec. (0.00 ticks)
  Sync time (average)   =    0.00 sec.
  Wait time (average)   =    0.00 sec.
                          ------------
Total (root+branch&cut) =    5.96 sec. (10014.86 ticks)
Gap: 100%
Upper bound: 63.1343
Lower bound: 1.26829e-05
End of CPLEX run. Time: 5.96028 seconds

===== New CPLEX run =====
Instance: /home/yorig/tuner/mpils-tests/instances/miplib/medium-1/mushroom-best.mps
Config: /scratch/yorig/mpils-results-grid-ticks-10000-2proc-no-mip-start/medium-1/2proc/seed-3/7_mushroom-best_seed-3_20260501_224031/iterated_local_search/run_6_worker_1/ils_config_16923579925827526492.prm
========================

Selected objective sense:  MINIMIZE
Selected objective  name:  obj
Selected RHS        name:  rhs
Selected bound      name:  bnd
Version identifier: 22.1.2.0 | 2024-11-26 | 0edbb82fd
CPXPARAM_Simplex_DGradient                       3
CPXPARAM_Threads                                 8
CPXPARAM_Parallel                                1
CPXPARAM_MIP_Cuts_Cliques                        3
CPXPARAM_MIP_Cuts_Covers                         -1
CPXPARAM_MIP_Strategy_StartAlgorithm             2
CPXPARAM_MIP_Strategy_SubAlgorithm               5
CPXPARAM_Preprocessing_BoundStrength             0
CPXPARAM_MIP_Strategy_PresolveNode               3
CPXPARAM_MIP_Cuts_Implied                        2
CPXPARAM_MIP_Cuts_GUBCovers                      -1
CPXPARAM_MIP_Limits_GomoryCand                   25
CPXPARAM_MIP_Cuts_Gomory                         2
CPXPARAM_MIP_Cuts_MIRCut                         -1
CPXPARAM_MIP_Cuts_Disjunctive                    3
CPXPARAM_MIP_Limits_AggForCut                    5
CPXPARAM_Emphasis_MIP                            2
CPXPARAM_Preprocessing_Symmetry                  5
CPXPARAM_MIP_Strategy_HeuristicFreq              20
CPXPARAM_MIP_Strategy_BBInterval                 5
CPXPARAM_MIP_Strategy_RINSHeur                   1000
CPXPARAM_DetTimeLimit                            10000
CPXPARAM_MIP_Limits_CutsFactor                   16
Found incumbent of value 8124.895732 after 0.00 sec. (1.54 ticks)
Tried aggregator 2 times.
MIP Presolve modified 8124 coefficients.
Aggregator did 4 substitutions.
Reduced MIP has 8576 rows, 8464 columns, and 180492 nonzeros.
Reduced MIP has 8237 binaries, 114 generals, 0 SOSs, and 0 indicators.
Presolve time = 0.04 sec. (61.25 ticks)
Probing time = 0.12 sec. (2.61 ticks)
Tried aggregator 1 time.
Detecting symmetries...
Reduced MIP has 8576 rows, 8464 columns, and 180492 nonzeros.
Reduced MIP has 8237 binaries, 227 generals, 0 SOSs, and 0 indicators.
Presolve time = 0.04 sec. (57.67 ticks)
Probing time = 0.01 sec. (3.45 ticks)
MIP emphasis: optimality.
MIP search method: dynamic search.
Parallel mode: deterministic, using up to 8 threads.
Root relaxation solution time = 0.08 sec. (176.13 ticks)

        Nodes                                         Cuts/
   Node  Left     Objective  IInf  Best Integer    Best Bound    ItCnt     Gap

*     0+    0                         8124.8957        0.0000           100.00%
*     0+    0                         3916.8946        0.0000           100.00%
*     0+    0                         3916.8936        0.0000           100.00%
*     0+    0                         3916.8925        0.0000           100.00%
*     0+    0                         3916.0000        0.0000           100.00%
      0     0        0.0000    31     3916.0000        0.0000      471  100.00%
*     0+    0                           63.1343        0.0000           100.00%

Clique cuts applied:  0
Implied bound cuts applied:  0
Gomory fractional cuts applied:  0
Disjunctive cuts applied:  0
Cone linearizations applied:  0

Root node processing (before b&c):
  Real time             =    5.22 sec. (10014.39 ticks)
Parallel b&c, 8 threads:
  Real time             =    0.00 sec. (0.00 ticks)
  Sync time (average)   =    0.00 sec.
  Wait time (average)   =    0.00 sec.
                          ------------
Total (root+branch&cut) =    5.22 sec. (10014.39 ticks)
Gap: 100%
Upper bound: 63.1343
Lower bound: 1.26829e-05
End of CPLEX run. Time: 5.22842 seconds

===== New CPLEX run =====
Instance: /home/yorig/tuner/mpils-tests/instances/miplib/medium-1/mushroom-best.mps
Config: /scratch/yorig/mpils-results-grid-ticks-10000-2proc-no-mip-start/medium-1/2proc/seed-3/7_mushroom-best_seed-3_20260501_224031/iterated_local_search/run_6_worker_1/ils_config_8170429927448669320.prm
========================

Selected objective sense:  MINIMIZE
Selected objective  name:  obj
Selected RHS        name:  rhs
Selected bound      name:  bnd
Version identifier: 22.1.2.0 | 2024-11-26 | 0edbb82fd
CPXPARAM_Simplex_DGradient                       3
CPXPARAM_Threads                                 8
CPXPARAM_Parallel                                1
CPXPARAM_MIP_Cuts_Cliques                        3
CPXPARAM_MIP_Cuts_Covers                         2
CPXPARAM_MIP_Strategy_StartAlgorithm             2
CPXPARAM_MIP_Strategy_SubAlgorithm               5
CPXPARAM_Preprocessing_BoundStrength             0
CPXPARAM_MIP_Strategy_PresolveNode               3
CPXPARAM_MIP_Cuts_Implied                        2
CPXPARAM_MIP_Cuts_GUBCovers                      -1
CPXPARAM_MIP_Limits_GomoryCand                   25
CPXPARAM_MIP_Cuts_Gomory                         2
CPXPARAM_MIP_Cuts_MIRCut                         -1
CPXPARAM_MIP_Cuts_Disjunctive                    3
CPXPARAM_MIP_Limits_AggForCut                    5
CPXPARAM_Emphasis_MIP                            2
CPXPARAM_Preprocessing_Symmetry                  5
CPXPARAM_MIP_Strategy_HeuristicFreq              20
CPXPARAM_MIP_Strategy_BBInterval                 5
CPXPARAM_DetTimeLimit                            10000
CPXPARAM_MIP_Limits_CutsFactor                   16
Found incumbent of value 8124.895732 after 0.00 sec. (1.54 ticks)
Tried aggregator 2 times.
MIP Presolve modified 8124 coefficients.
Aggregator did 4 substitutions.
Reduced MIP has 8576 rows, 8464 columns, and 180492 nonzeros.
Reduced MIP has 8237 binaries, 114 generals, 0 SOSs, and 0 indicators.
Presolve time = 0.04 sec. (61.25 ticks)
Probing time = 0.13 sec. (2.61 ticks)
Tried aggregator 1 time.
Detecting symmetries...
Reduced MIP has 8576 rows, 8464 columns, and 180492 nonzeros.
Reduced MIP has 8237 binaries, 227 generals, 0 SOSs, and 0 indicators.
Presolve time = 0.05 sec. (57.67 ticks)
Probing time = 0.02 sec. (3.45 ticks)
MIP emphasis: optimality.
MIP search method: dynamic search.
Parallel mode: deterministic, using up to 8 threads.
Root relaxation solution time = 0.08 sec. (176.13 ticks)

        Nodes                                         Cuts/
   Node  Left     Objective  IInf  Best Integer    Best Bound    ItCnt     Gap

*     0+    0                         8124.8957        0.0000           100.00%
*     0+    0                         3916.8946        0.0000           100.00%
*     0+    0                         3916.8936        0.0000           100.00%
*     0+    0                         3916.8925        0.0000           100.00%
*     0+    0                         3916.0000        0.0000           100.00%
      0     0        0.0000    31     3916.0000        0.0000      471  100.00%
*     0+    0                           63.1343        0.0000           100.00%

Clique cuts applied:  0
Cover cuts applied:  0
Implied bound cuts applied:  0
Gomory fractional cuts applied:  0
Disjunctive cuts applied:  0
Cone linearizations applied:  0

Root node processing (before b&c):
  Real time             =    5.88 sec. (10014.86 ticks)
Parallel b&c, 8 threads:
  Real time             =    0.00 sec. (0.00 ticks)
  Sync time (average)   =    0.00 sec.
  Wait time (average)   =    0.00 sec.
                          ------------
Total (root+branch&cut) =    5.88 sec. (10014.86 ticks)
Gap: 100%
Upper bound: 63.1343
Lower bound: 1.26829e-05
End of CPLEX run. Time: 5.88483 seconds

===== New CPLEX run =====
Instance: /home/yorig/tuner/mpils-tests/instances/miplib/medium-1/mushroom-best.mps
Config: /scratch/yorig/mpils-results-grid-ticks-10000-2proc-no-mip-start/medium-1/2proc/seed-3/7_mushroom-best_seed-3_20260501_224031/iterated_local_search/run_6_worker_1/ils_config_5288796194314132176.prm
========================

Selected objective sense:  MINIMIZE
Selected objective  name:  obj
Selected RHS        name:  rhs
Selected bound      name:  bnd
Version identifier: 22.1.2.0 | 2024-11-26 | 0edbb82fd
CPXPARAM_Simplex_DGradient                       3
CPXPARAM_Threads                                 8
CPXPARAM_Parallel                                1
CPXPARAM_MIP_Cuts_Cliques                        3
CPXPARAM_MIP_Cuts_Covers                         2
CPXPARAM_MIP_Strategy_StartAlgorithm             2
CPXPARAM_MIP_Strategy_SubAlgorithm               5
CPXPARAM_Preprocessing_BoundStrength             0
CPXPARAM_MIP_Strategy_PresolveNode               3
CPXPARAM_MIP_Cuts_Implied                        2
CPXPARAM_MIP_Cuts_GUBCovers                      -1
CPXPARAM_MIP_Limits_GomoryCand                   25
CPXPARAM_MIP_Cuts_Gomory                         2
CPXPARAM_MIP_Cuts_MIRCut                         -1
CPXPARAM_MIP_Cuts_Disjunctive                    3
CPXPARAM_MIP_Limits_AggForCut                    5
CPXPARAM_Emphasis_MIP                            2
CPXPARAM_MIP_Strategy_HeuristicFreq              20
CPXPARAM_MIP_Strategy_BBInterval                 5
CPXPARAM_MIP_Strategy_RINSHeur                   1000
CPXPARAM_DetTimeLimit                            10000
CPXPARAM_MIP_Limits_CutsFactor                   16
Found incumbent of value 8124.895732 after 0.00 sec. (1.54 ticks)
Tried aggregator 2 times.
MIP Presolve modified 8124 coefficients.
Aggregator did 4 substitutions.
Reduced MIP has 8576 rows, 8464 columns, and 180492 nonzeros.
Reduced MIP has 8237 binaries, 114 generals, 0 SOSs, and 0 indicators.
Presolve time = 0.04 sec. (61.25 ticks)
Probing time = 0.34 sec. (2.61 ticks)
Tried aggregator 1 time.
Detecting symmetries...
Reduced MIP has 8576 rows, 8464 columns, and 180492 nonzeros.
Reduced MIP has 8237 binaries, 227 generals, 0 SOSs, and 0 indicators.
Presolve time = 0.04 sec. (57.67 ticks)
Probing time = 0.09 sec. (3.45 ticks)
MIP emphasis: optimality.
MIP search method: dynamic search.
Parallel mode: deterministic, using up to 8 threads.
Root relaxation solution time = 0.08 sec. (176.13 ticks)

        Nodes                                         Cuts/
   Node  Left     Objective  IInf  Best Integer    Best Bound    ItCnt     Gap

*     0+    0                         8124.8957        0.0000           100.00%
*     0+    0                         3916.8946        0.0000           100.00%
*     0+    0                         3916.8936        0.0000           100.00%
*     0+    0                         3916.8925        0.0000           100.00%
*     0+    0                         3916.0000        0.0000           100.00%
      0     0        0.0000    31     3916.0000        0.0000      471  100.00%
*     0+    0                           63.1343        0.0000           100.00%

Clique cuts applied:  0
Cover cuts applied:  0
Implied bound cuts applied:  0
Gomory fractional cuts applied:  0
Disjunctive cuts applied:  0
Cone linearizations applied:  0

Root node processing (before b&c):
  Real time             =    5.88 sec. (10014.86 ticks)
Parallel b&c, 8 threads:
  Real time             =    0.00 sec. (0.00 ticks)
  Sync time (average)   =    0.00 sec.
  Wait time (average)   =    0.00 sec.
                          ------------
Total (root+branch&cut) =    5.88 sec. (10014.86 ticks)
Gap: 100%
Upper bound: 63.1343
Lower bound: 1.26829e-05
End of CPLEX run. Time: 5.89522 seconds

===== New CPLEX run =====
Instance: /home/yorig/tuner/mpils-tests/instances/miplib/medium-1/mushroom-best.mps
Config: /scratch/yorig/mpils-results-grid-ticks-10000-2proc-no-mip-start/medium-1/2proc/seed-3/7_mushroom-best_seed-3_20260501_224031/iterated_local_search/run_6_worker_1/ils_config_11502408544039024873.prm
========================

Selected objective sense:  MINIMIZE
Selected objective  name:  obj
Selected RHS        name:  rhs
Selected bound      name:  bnd
Version identifier: 22.1.2.0 | 2024-11-26 | 0edbb82fd
CPXPARAM_Simplex_DGradient                       3
CPXPARAM_Threads                                 8
CPXPARAM_Parallel                                1
CPXPARAM_MIP_Cuts_Cliques                        3
CPXPARAM_MIP_Cuts_Covers                         2
CPXPARAM_MIP_Strategy_StartAlgorithm             2
CPXPARAM_MIP_Strategy_SubAlgorithm               3
CPXPARAM_Preprocessing_BoundStrength             0
CPXPARAM_MIP_Strategy_PresolveNode               3
CPXPARAM_MIP_Cuts_Implied                        2
CPXPARAM_MIP_Cuts_GUBCovers                      -1
CPXPARAM_MIP_Limits_GomoryCand                   25
CPXPARAM_MIP_Cuts_Gomory                         2
CPXPARAM_MIP_Cuts_MIRCut                         -1
CPXPARAM_MIP_Cuts_Disjunctive                    3
CPXPARAM_MIP_Limits_AggForCut                    5
CPXPARAM_Emphasis_MIP                            2
CPXPARAM_Preprocessing_Symmetry                  5
CPXPARAM_MIP_Strategy_HeuristicFreq              20
CPXPARAM_MIP_Strategy_BBInterval                 5
CPXPARAM_MIP_Strategy_RINSHeur                   1000
CPXPARAM_DetTimeLimit                            10000
CPXPARAM_MIP_Limits_CutsFactor                   16
Found incumbent of value 8124.895732 after 0.00 sec. (1.54 ticks)
Tried aggregator 2 times.
MIP Presolve modified 8124 coefficients.
Aggregator did 4 substitutions.
Reduced MIP has 8576 rows, 8464 columns, and 180492 nonzeros.
Reduced MIP has 8237 binaries, 114 generals, 0 SOSs, and 0 indicators.
Presolve time = 0.04 sec. (61.25 ticks)
Probing time = 0.27 sec. (2.61 ticks)
Tried aggregator 1 time.
Detecting symmetries...
Reduced MIP has 8576 rows, 8464 columns, and 180492 nonzeros.
Reduced MIP has 8237 binaries, 227 generals, 0 SOSs, and 0 indicators.
Presolve time = 0.04 sec. (57.67 ticks)
Probing time = 0.14 sec. (3.45 ticks)
MIP emphasis: optimality.
MIP search method: dynamic search.
Parallel mode: deterministic, using up to 8 threads.
Root relaxation solution time = 0.10 sec. (176.13 ticks)

        Nodes                                         Cuts/
   Node  Left     Objective  IInf  Best Integer    Best Bound    ItCnt     Gap

*     0+    0                         8124.8957        0.0000           100.00%
*     0+    0                         3916.8946        0.0000           100.00%
*     0+    0                         3916.8936        0.0000           100.00%
*     0+    0                         3916.8925        0.0000           100.00%
*     0+    0                         3916.0000        0.0000           100.00%
      0     0        0.0000    31     3916.0000        0.0000      471  100.00%
*     0+    0                           63.1343        0.0000           100.00%

Clique cuts applied:  0
Cover cuts applied:  0
Implied bound cuts applied:  0
Gomory fractional cuts applied:  0
Disjunctive cuts applied:  0
Cone linearizations applied:  0

Root node processing (before b&c):
  Real time             =    5.55 sec. (10019.76 ticks)
Parallel b&c, 8 threads:
  Real time             =    0.00 sec. (0.00 ticks)
  Sync time (average)   =    0.00 sec.
  Wait time (average)   =    0.00 sec.
                          ------------
Total (root+branch&cut) =    5.55 sec. (10019.76 ticks)
Gap: 100%
Upper bound: 63.1343
Lower bound: 1.26829e-05
End of CPLEX run. Time: 5.55206 seconds
